c nIsolatedPIs 14
c maxPI 18
p cnf 267 748
c gate 19 4 11 0
4 -19 0
11 -19 0
-4 -11 19 0
c gate 20 5 10 0
5 -20 0
10 -20 0
-5 -10 20 0
c gate 21 19 20 0
19 -21 0
20 -21 0
-19 -20 21 0
c gate 22 3 12 0
3 -22 0
12 -22 0
-3 -12 22 0
c gate 23 -19 -20 0
-19 -23 0
-20 -23 0
19 20 23 0
c gate 24 -21 -23 0
-21 -24 0
-23 -24 0
21 23 24 0
c gate 25 22 24 0
22 -25 0
24 -25 0
-22 -24 25 0
c gate 26 -21 -25 0
-21 -26 0
-25 -26 0
21 25 26 0
c gate 27 4 12 0
4 -27 0
12 -27 0
-4 -12 27 0
c gate 28 5 11 0
5 -28 0
11 -28 0
-5 -11 28 0
c gate 29 6 10 0
6 -29 0
10 -29 0
-6 -10 29 0
c gate 30 -28 -29 0
-28 -30 0
-29 -30 0
28 29 30 0
c gate 31 28 29 0
28 -31 0
29 -31 0
-28 -29 31 0
c gate 32 -30 -31 0
-30 -32 0
-31 -32 0
30 31 32 0
c gate 33 -27 -32 0
-27 -33 0
-32 -33 0
27 32 33 0
c gate 34 27 32 0
27 -34 0
32 -34 0
-27 -32 34 0
c gate 35 -33 -34 0
-33 -35 0
-34 -35 0
33 34 35 0
c gate 36 -26 35 0
-26 -36 0
35 -36 0
26 -35 36 0
c gate 37 1 15 0
1 -37 0
15 -37 0
-1 -15 37 0
c gate 38 2 14 0
2 -38 0
14 -38 0
-2 -14 38 0
c gate 39 3 13 0
3 -39 0
13 -39 0
-3 -13 39 0
c gate 40 -38 -39 0
-38 -40 0
-39 -40 0
38 39 40 0
c gate 41 38 39 0
38 -41 0
39 -41 0
-38 -39 41 0
c gate 42 -40 -41 0
-40 -42 0
-41 -42 0
40 41 42 0
c gate 43 37 42 0
37 -43 0
42 -43 0
-37 -42 43 0
c gate 44 -37 -42 0
-37 -44 0
-42 -44 0
37 42 44 0
c gate 45 -43 -44 0
-43 -45 0
-44 -45 0
43 44 45 0
c gate 46 26 -35 0
26 -46 0
-35 -46 0
-26 35 46 0
c gate 47 -36 -46 0
-36 -47 0
-46 -47 0
36 46 47 0
c gate 48 45 47 0
45 -48 0
47 -48 0
-45 -47 48 0
c gate 49 -36 -48 0
-36 -49 0
-48 -49 0
36 48 49 0
c gate 50 2 15 0
2 -50 0
15 -50 0
-2 -15 50 0
c gate 51 3 14 0
3 -51 0
14 -51 0
-3 -14 51 0
c gate 52 4 13 0
4 -52 0
13 -52 0
-4 -13 52 0
c gate 53 -51 -52 0
-51 -53 0
-52 -53 0
51 52 53 0
c gate 54 51 52 0
51 -54 0
52 -54 0
-51 -52 54 0
c gate 55 -53 -54 0
-53 -55 0
-54 -55 0
53 54 55 0
c gate 56 50 55 0
50 -56 0
55 -56 0
-50 -55 56 0
c gate 57 -50 -55 0
-50 -57 0
-55 -57 0
50 55 57 0
c gate 58 -56 -57 0
-56 -58 0
-57 -58 0
56 57 58 0
c gate 59 -31 -34 0
-31 -59 0
-34 -59 0
31 34 59 0
c gate 60 5 12 0
5 -60 0
12 -60 0
-5 -12 60 0
c gate 61 6 11 0
6 -61 0
11 -61 0
-6 -11 61 0
c gate 62 7 10 0
7 -62 0
10 -62 0
-7 -10 62 0
c gate 63 -61 -62 0
-61 -63 0
-62 -63 0
61 62 63 0
c gate 64 61 62 0
61 -64 0
62 -64 0
-61 -62 64 0
c gate 65 -63 -64 0
-63 -65 0
-64 -65 0
63 64 65 0
c gate 66 -60 -65 0
-60 -66 0
-65 -66 0
60 65 66 0
c gate 67 60 65 0
60 -67 0
65 -67 0
-60 -65 67 0
c gate 68 -66 -67 0
-66 -68 0
-67 -68 0
66 67 68 0
c gate 69 -59 68 0
-59 -69 0
68 -69 0
59 -68 69 0
c gate 70 59 -68 0
59 -70 0
-68 -70 0
-59 68 70 0
c gate 71 -69 -70 0
-69 -71 0
-70 -71 0
69 70 71 0
c gate 72 -58 -71 0
-58 -72 0
-71 -72 0
58 71 72 0
c gate 73 58 71 0
58 -73 0
71 -73 0
-58 -71 73 0
c gate 74 -72 -73 0
-72 -74 0
-73 -74 0
72 73 74 0
c gate 75 -49 74 0
-49 -75 0
74 -75 0
49 -74 75 0
c gate 76 1 16 0
1 -76 0
16 -76 0
-1 -16 76 0
c gate 77 -41 -43 0
-41 -77 0
-43 -77 0
41 43 77 0
c gate 78 76 -77 0
76 -78 0
-77 -78 0
-76 77 78 0
c gate 79 -76 77 0
-76 -79 0
77 -79 0
76 -77 79 0
c gate 80 -78 -79 0
-78 -80 0
-79 -80 0
78 79 80 0
c gate 81 49 -74 0
49 -81 0
-74 -81 0
-49 74 81 0
c gate 82 -75 -81 0
-75 -82 0
-81 -82 0
75 81 82 0
c gate 83 80 82 0
80 -83 0
82 -83 0
-80 -82 83 0
c gate 84 -75 -83 0
-75 -84 0
-83 -84 0
75 83 84 0
c gate 85 -69 -73 0
-69 -85 0
-73 -85 0
69 73 85 0
c gate 86 -64 -67 0
-64 -86 0
-67 -86 0
64 67 86 0
c gate 87 7 11 0
7 -87 0
11 -87 0
-7 -11 87 0
c gate 88 8 10 0
8 -88 0
10 -88 0
-8 -10 88 0
c gate 89 -87 -88 0
-87 -89 0
-88 -89 0
87 88 89 0
c gate 90 87 88 0
87 -90 0
88 -90 0
-87 -88 90 0
c gate 91 -89 -90 0
-89 -91 0
-90 -91 0
89 90 91 0
c gate 92 6 12 0
6 -92 0
12 -92 0
-6 -12 92 0
c gate 93 -91 92 0
-91 -93 0
92 -93 0
91 -92 93 0
c gate 94 91 -92 0
91 -94 0
-92 -94 0
-91 92 94 0
c gate 95 -93 -94 0
-93 -95 0
-94 -95 0
93 94 95 0
c gate 96 86 95 0
86 -96 0
95 -96 0
-86 -95 96 0
c gate 97 -86 -95 0
-86 -97 0
-95 -97 0
86 95 97 0
c gate 98 -96 -97 0
-96 -98 0
-97 -98 0
96 97 98 0
c gate 99 3 15 0
3 -99 0
15 -99 0
-3 -15 99 0
c gate 100 4 14 0
4 -100 0
14 -100 0
-4 -14 100 0
c gate 101 5 13 0
5 -101 0
13 -101 0
-5 -13 101 0
c gate 102 -100 -101 0
-100 -102 0
-101 -102 0
100 101 102 0
c gate 103 100 101 0
100 -103 0
101 -103 0
-100 -101 103 0
c gate 104 -102 -103 0
-102 -104 0
-103 -104 0
102 103 104 0
c gate 105 99 104 0
99 -105 0
104 -105 0
-99 -104 105 0
c gate 106 -99 -104 0
-99 -106 0
-104 -106 0
99 104 106 0
c gate 107 -105 -106 0
-105 -107 0
-106 -107 0
105 106 107 0
c gate 108 -98 107 0
-98 -108 0
107 -108 0
98 -107 108 0
c gate 109 98 -107 0
98 -109 0
-107 -109 0
-98 107 109 0
c gate 110 -108 -109 0
-108 -110 0
-109 -110 0
108 109 110 0
c gate 111 85 110 0
85 -111 0
110 -111 0
-85 -110 111 0
c gate 112 -85 -110 0
-85 -112 0
-110 -112 0
85 110 112 0
c gate 113 -111 -112 0
-111 -113 0
-112 -113 0
111 112 113 0
c gate 114 1 17 0
1 -114 0
17 -114 0
-1 -17 114 0
c gate 115 2 16 0
2 -115 0
16 -115 0
-2 -16 115 0
c gate 116 -114 -115 0
-114 -116 0
-115 -116 0
114 115 116 0
c gate 117 114 115 0
114 -117 0
115 -117 0
-114 -115 117 0
c gate 118 -116 -117 0
-116 -118 0
-117 -118 0
116 117 118 0
c gate 119 -54 -56 0
-54 -119 0
-56 -119 0
54 56 119 0
c gate 120 -118 119 0
-118 -120 0
119 -120 0
118 -119 120 0
c gate 121 118 -119 0
118 -121 0
-119 -121 0
-118 119 121 0
c gate 122 -120 -121 0
-120 -122 0
-121 -122 0
120 121 122 0
c gate 123 -113 122 0
-113 -123 0
122 -123 0
113 -122 123 0
c gate 124 113 -122 0
113 -124 0
-122 -124 0
-113 122 124 0
c gate 125 -123 -124 0
-123 -125 0
-124 -125 0
123 124 125 0
c gate 126 -84 -125 0
-84 -126 0
-125 -126 0
84 125 126 0
c gate 127 84 125 0
84 -127 0
125 -127 0
-84 -125 127 0
c gate 128 -126 -127 0
-126 -128 0
-127 -128 0
126 127 128 0
c gate 129 78 128 0
78 -129 0
128 -129 0
-78 -128 129 0
c gate 130 -126 -129 0
-126 -130 0
-129 -130 0
126 129 130 0
c gate 131 1 18 0
1 -131 0
18 -131 0
-1 -18 131 0
c gate 132 2 17 0
2 -132 0
17 -132 0
-2 -17 132 0
c gate 133 3 16 0
3 -133 0
16 -133 0
-3 -16 133 0
c gate 134 -132 -133 0
-132 -134 0
-133 -134 0
132 133 134 0
c gate 135 132 133 0
132 -135 0
133 -135 0
-132 -133 135 0
c gate 136 -134 -135 0
-134 -136 0
-135 -136 0
134 135 136 0
c gate 137 -131 -136 0
-131 -137 0
-136 -137 0
131 136 137 0
c gate 138 131 136 0
131 -138 0
136 -138 0
-131 -136 138 0
c gate 139 -137 -138 0
-137 -139 0
-138 -139 0
137 138 139 0
c gate 140 -103 -105 0
-103 -140 0
-105 -140 0
103 105 140 0
c gate 141 139 -140 0
139 -141 0
-140 -141 0
-139 140 141 0
c gate 142 -139 140 0
-139 -142 0
140 -142 0
139 -140 142 0
c gate 143 -141 -142 0
-141 -143 0
-142 -143 0
141 142 143 0
c gate 144 -117 -143 0
-117 -144 0
-143 -144 0
117 143 144 0
c gate 145 117 143 0
117 -145 0
143 -145 0
-117 -143 145 0
c gate 146 -144 -145 0
-144 -146 0
-145 -146 0
144 145 146 0
c gate 147 4 15 0
4 -147 0
15 -147 0
-4 -15 147 0
c gate 148 5 14 0
5 -148 0
14 -148 0
-5 -14 148 0
c gate 149 6 13 0
6 -149 0
13 -149 0
-6 -13 149 0
c gate 150 -148 -149 0
-148 -150 0
-149 -150 0
148 149 150 0
c gate 151 148 149 0
148 -151 0
149 -151 0
-148 -149 151 0
c gate 152 -150 -151 0
-150 -152 0
-151 -152 0
150 151 152 0
c gate 153 -147 -152 0
-147 -153 0
-152 -153 0
147 152 153 0
c gate 154 147 152 0
147 -154 0
152 -154 0
-147 -152 154 0
c gate 155 -153 -154 0
-153 -155 0
-154 -155 0
153 154 155 0
c gate 156 7 12 0
7 -156 0
12 -156 0
-7 -12 156 0
c gate 157 8 11 0
8 -157 0
11 -157 0
-8 -11 157 0
c gate 158 9 10 0
9 -158 0
10 -158 0
-9 -10 158 0
c gate 159 -157 -158 0
-157 -159 0
-158 -159 0
157 158 159 0
c gate 160 157 158 0
157 -160 0
158 -160 0
-157 -158 160 0
c gate 161 -159 -160 0
-159 -161 0
-160 -161 0
159 160 161 0
c gate 162 -156 -161 0
-156 -162 0
-161 -162 0
156 161 162 0
c gate 163 156 161 0
156 -163 0
161 -163 0
-156 -161 163 0
c gate 164 -162 -163 0
-162 -164 0
-163 -164 0
162 163 164 0
c gate 165 -89 -94 0
-89 -165 0
-94 -165 0
89 94 165 0
c gate 166 164 165 0
164 -166 0
165 -166 0
-164 -165 166 0
c gate 167 -164 -165 0
-164 -167 0
-165 -167 0
164 165 167 0
c gate 168 -166 -167 0
-166 -168 0
-167 -168 0
166 167 168 0
c gate 169 -155 -168 0
-155 -169 0
-168 -169 0
155 168 169 0
c gate 170 155 168 0
155 -170 0
168 -170 0
-155 -168 170 0
c gate 171 -169 -170 0
-169 -171 0
-170 -171 0
169 170 171 0
c gate 172 -96 -109 0
-96 -172 0
-109 -172 0
96 109 172 0
c gate 173 171 172 0
171 -173 0
172 -173 0
-171 -172 173 0
c gate 174 -171 -172 0
-171 -174 0
-172 -174 0
171 172 174 0
c gate 175 -173 -174 0
-173 -175 0
-174 -175 0
173 174 175 0
c gate 176 -146 -175 0
-146 -176 0
-175 -176 0
146 175 176 0
c gate 177 146 175 0
146 -177 0
175 -177 0
-146 -175 177 0
c gate 178 -176 -177 0
-176 -178 0
-177 -178 0
176 177 178 0
c gate 179 -111 -124 0
-111 -179 0
-124 -179 0
111 124 179 0
c gate 180 178 179 0
178 -180 0
179 -180 0
-178 -179 180 0
c gate 181 -178 -179 0
-178 -181 0
-179 -181 0
178 179 181 0
c gate 182 -180 -181 0
-180 -182 0
-181 -182 0
180 181 182 0
c gate 183 -121 -182 0
-121 -183 0
-182 -183 0
121 182 183 0
c gate 184 121 182 0
121 -184 0
182 -184 0
-121 -182 184 0
c gate 185 -183 -184 0
-183 -185 0
-184 -185 0
183 184 185 0
c gate 186 130 -185 0
130 -186 0
-185 -186 0
-130 185 186 0
c gate 187 -130 185 0
-130 -187 0
185 -187 0
130 -185 187 0
c gate 188 -186 -187 0
-186 -188 0
-187 -188 0
186 187 188 0
c gate 189 4 10 0
4 -189 0
10 -189 0
-4 -10 189 0
c gate 190 3 11 0
3 -190 0
11 -190 0
-3 -11 190 0
c gate 191 189 190 0
189 -191 0
190 -191 0
-189 -190 191 0
c gate 192 2 12 0
2 -192 0
12 -192 0
-2 -12 192 0
c gate 193 -189 -190 0
-189 -193 0
-190 -193 0
189 190 193 0
c gate 194 -191 -193 0
-191 -194 0
-193 -194 0
191 193 194 0
c gate 195 192 194 0
192 -195 0
194 -195 0
-192 -194 195 0
c gate 196 -191 -195 0
-191 -196 0
-195 -196 0
191 195 196 0
c gate 197 -22 -24 0
-22 -197 0
-24 -197 0
22 24 197 0
c gate 198 -25 -197 0
-25 -198 0
-197 -198 0
25 197 198 0
c gate 199 -196 198 0
-196 -199 0
198 -199 0
196 -198 199 0
c gate 200 2 13 0
2 -200 0
13 -200 0
-2 -13 200 0
c gate 201 1 14 0
1 -201 0
14 -201 0
-1 -14 201 0
c gate 202 -200 -201 0
-200 -202 0
-201 -202 0
200 201 202 0
c gate 203 200 201 0
200 -203 0
201 -203 0
-200 -201 203 0
c gate 204 -202 -203 0
-202 -204 0
-203 -204 0
202 203 204 0
c gate 205 196 -198 0
196 -205 0
-198 -205 0
-196 198 205 0
c gate 206 -199 -205 0
-199 -206 0
-205 -206 0
199 205 206 0
c gate 207 204 206 0
204 -207 0
206 -207 0
-204 -206 207 0
c gate 208 -199 -207 0
-199 -208 0
-207 -208 0
199 207 208 0
c gate 209 -45 -47 0
-45 -209 0
-47 -209 0
45 47 209 0
c gate 210 -48 -209 0
-48 -210 0
-209 -210 0
48 209 210 0
c gate 211 -208 210 0
-208 -211 0
210 -211 0
208 -210 211 0
c gate 212 208 -210 0
208 -212 0
-210 -212 0
-208 210 212 0
c gate 213 -211 -212 0
-211 -213 0
-212 -213 0
211 212 213 0
c gate 214 203 213 0
203 -214 0
213 -214 0
-203 -213 214 0
c gate 215 -211 -214 0
-211 -215 0
-214 -215 0
211 214 215 0
c gate 216 -80 -82 0
-80 -216 0
-82 -216 0
80 82 216 0
c gate 217 -83 -216 0
-83 -217 0
-216 -217 0
83 216 217 0
c gate 218 -215 217 0
-215 -218 0
217 -218 0
215 -217 218 0
c gate 219 -78 -128 0
-78 -219 0
-128 -219 0
78 128 219 0
c gate 220 -129 -219 0
-129 -220 0
-219 -220 0
129 219 220 0
c gate 221 -218 -220 0
-218 -221 0
-220 -221 0
218 220 221 0
c gate 222 -192 -194 0
-192 -222 0
-194 -222 0
192 194 222 0
c gate 223 -195 -222 0
-195 -223 0
-222 -223 0
195 222 223 0
c gate 224 3 10 0
3 -224 0
10 -224 0
-3 -10 224 0
c gate 225 2 11 0
2 -225 0
11 -225 0
-2 -11 225 0
c gate 226 224 225 0
224 -226 0
225 -226 0
-224 -225 226 0
c gate 227 -224 -225 0
-224 -227 0
-225 -227 0
224 225 227 0
c gate 228 1 12 0
1 -228 0
12 -228 0
-1 -12 228 0
c gate 229 -227 228 0
-227 -229 0
228 -229 0
227 -228 229 0
c gate 230 -226 -229 0
-226 -230 0
-229 -230 0
226 229 230 0
c gate 231 223 -230 0
223 -231 0
-230 -231 0
-223 230 231 0
c gate 232 1 13 0
1 -232 0
13 -232 0
-1 -13 232 0
c gate 233 -223 230 0
-223 -233 0
230 -233 0
223 -230 233 0
c gate 234 -231 -233 0
-231 -234 0
-233 -234 0
231 233 234 0
c gate 235 232 234 0
232 -235 0
234 -235 0
-232 -234 235 0
c gate 236 -231 -235 0
-231 -236 0
-235 -236 0
231 235 236 0
c gate 237 -204 -206 0
-204 -237 0
-206 -237 0
204 206 237 0
c gate 238 -207 -237 0
-207 -238 0
-237 -238 0
207 237 238 0
c gate 239 -236 238 0
-236 -239 0
238 -239 0
236 -238 239 0
c gate 240 215 -217 0
215 -240 0
-217 -240 0
-215 217 240 0
c gate 241 -203 -213 0
-203 -241 0
-213 -241 0
203 213 241 0
c gate 242 -214 -241 0
-214 -242 0
-241 -242 0
214 241 242 0
c gate 243 -218 242 0
-218 -243 0
242 -243 0
218 -242 243 0
c gate 244 -240 243 0
-240 -244 0
243 -244 0
240 -243 244 0
c gate 245 239 244 0
239 -245 0
244 -245 0
-239 -244 245 0
c gate 246 218 220 0
218 -246 0
220 -246 0
-218 -220 246 0
c gate 247 -245 -246 0
-245 -247 0
-246 -247 0
245 246 247 0
c gate 248 -221 -247 0
-221 -248 0
-247 -248 0
221 247 248 0
c gate 249 188 248 0
188 -249 0
248 -249 0
-188 -248 249 0
c gate 250 -188 -246 0
-188 -250 0
-246 -250 0
188 246 250 0
c gate 251 -221 -246 0
-221 -251 0
-246 -251 0
221 246 251 0
c gate 252 -245 -251 0
-245 -252 0
-251 -252 0
245 251 252 0
c gate 253 236 -238 0
236 -253 0
-238 -253 0
-236 238 253 0
c gate 254 -232 -234 0
-232 -254 0
-234 -254 0
232 234 254 0
c gate 255 -3 -12 0
-3 -255 0
-12 -255 0
3 12 255 0
c gate 256 -22 -255 0
-22 -256 0
-255 -256 0
22 255 256 0
c gate 257 1 10 0
1 -257 0
10 -257 0
-1 -10 257 0
c gate 258 225 257 0
225 -258 0
257 -258 0
-225 -257 258 0
c gate 259 -256 258 0
-256 -259 0
258 -259 0
256 -258 259 0
c gate 260 -235 259 0
-235 -260 0
259 -260 0
235 -259 260 0
c gate 261 -254 260 0
-254 -261 0
260 -261 0
254 -260 261 0
c gate 262 -239 261 0
-239 -262 0
261 -262 0
239 -261 262 0
c gate 263 -253 262 0
-253 -263 0
262 -263 0
253 -262 263 0
c gate 264 244 263 0
244 -264 0
263 -264 0
-244 -263 264 0
c gate 265 -252 264 0
-252 -265 0
264 -265 0
252 -264 265 0
c gate 266 -250 265 0
-250 -266 0
265 -266 0
250 -265 266 0
c gate 267 -249 266 0
-249 -267 0
266 -267 0
249 -266 267 0
c PO
267 0
